p tw 50 125
e 0 5
e 0 26
e 0 32
e 0 48
e 0 49
e 1 19
e 1 27
e 1 33
e 1 48
e 1 49
e 2 7
e 2 11
e 2 12
e 2 16
e 2 28
e 2 34
e 2 41
e 3 5
e 3 21
e 3 25
e 3 30
e 3 37
e 3 39
e 4 9
e 4 10
e 4 19
e 4 22
e 4 30
e 4 38
e 5 10
e 5 16
e 5 39
e 5 48
e 6 12
e 6 13
e 6 49
e 7 16
e 7 22
e 7 40
e 7 41
e 7 44
e 8 21
e 8 31
e 8 33
e 9 20
e 9 39
e 9 46
e 10 15
e 10 19
e 10 21
e 10 31
e 10 42
e 11 16
e 11 22
e 11 25
e 11 44
e 11 48
e 12 15
e 12 28
e 12 43
e 13 22
e 13 28
e 13 38
e 14 19
e 14 23
e 15 16
e 15 19
e 15 25
e 15 36
e 15 40
e 15 42
e 16 20
e 16 21
e 16 25
e 16 32
e 16 43
e 18 21
e 18 23
e 18 24
e 18 26
e 18 37
e 18 39
e 18 40
e 18 41
e 19 20
e 19 29
e 19 32
e 20 29
e 20 43
e 21 45
e 21 49
e 22 30
e 22 31
e 22 37
e 22 40
e 22 44
e 23 29
e 23 39
e 24 37
e 25 32
e 25 34
e 25 36
e 25 46
e 26 37
e 27 41
e 28 40
e 28 42
e 28 46
e 29 32
e 30 36
e 30 39
e 30 44
e 30 49
e 31 46
e 32 33
e 32 39
e 36 44
e 39 41
e 40 44
e 41 44
e 41 47
e 42 44
e 44 48
e 44 49
e 47 48
